c preprocessed version of 1c5e_graph, 95 vertices, 1148 edges
p td 95 1148
93 94
92 94
92 93
91 94
91 93
91 92
90 92
90 91
89 93
89 92
89 91
89 90
88 92
88 90
88 89
87 94
87 93
87 92
87 91
87 89
87 88
86 93
86 92
86 91
86 90
86 89
86 88
86 87
85 93
85 91
85 89
85 87
85 86
84 93
84 92
84 91
84 87
84 86
84 85
83 94
83 93
83 92
83 91
83 87
83 86
83 85
83 84
82 93
82 91
82 86
82 85
82 84
82 83
81 93
81 87
81 85
81 84
81 83
81 82
80 87
80 84
80 83
80 82
80 81
79 93
79 83
79 82
79 81
79 80
78 84
78 83
78 82
78 81
78 80
78 79
77 82
77 81
77 79
77 78
76 93
76 91
76 86
76 85
76 83
76 82
76 81
76 80
76 79
76 78
76 77
75 85
75 82
75 81
75 78
75 77
75 76
74 82
74 77
74 76
74 75
73 85
73 82
73 76
73 75
73 74
72 93
72 91
72 86
72 85
72 83
72 82
72 81
72 79
72 78
72 77
72 76
72 75
72 74
72 73
71 93
71 82
71 74
71 73
71 72
70 94
70 93
70 92
70 91
70 86
70 85
70 83
70 82
70 81
70 79
70 76
70 73
70 72
70 71
69 94
69 93
69 91
69 82
69 72
69 71
69 70
68 94
68 93
68 83
68 82
68 79
68 72
68 71
68 70
68 69
67 94
67 93
67 91
67 87
67 86
67 85
67 84
67 83
67 82
67 81
67 80
67 79
67 76
67 72
67 70
67 69
67 68
66 94
66 93
66 92
66 91
66 83
66 82
66 79
66 72
66 70
66 69
66 68
66 67
65 94
65 93
65 92
65 91
65 90
65 86
65 85
65 83
65 82
65 76
65 72
65 71
65 70
65 69
65 68
65 67
65 66
64 94
64 93
64 92
64 91
64 90
64 87
64 86
64 83
64 70
64 69
64 66
64 65
63 94
63 93
63 92
63 91
63 90
63 86
63 70
63 69
63 66
63 65
63 64
62 92
62 91
62 90
62 89
62 86
62 65
62 64
62 63
61 91
61 90
61 89
61 86
61 65
61 63
61 62
60 93
60 92
60 91
60 90
60 86
60 85
60 82
60 72
60 70
60 69
60 65
60 64
60 63
60 62
60 61
59 91
59 89
59 86
59 70
59 65
59 63
59 62
59 61
59 60
58 61
58 60
58 59
57 73
57 61
57 60
57 59
57 58
56 59
56 58
56 57
55 58
55 57
55 56
54 59
54 58
54 57
54 56
54 55
53 57
53 55
53 54
52 57
52 54
52 53
51 57
51 54
51 53
51 52
50 73
50 71
50 59
50 58
50 57
50 56
50 55
50 54
50 53
50 52
50 51
49 71
49 58
49 57
49 54
49 53
49 51
49 50
48 60
48 59
48 58
48 57
48 56
48 54
48 53
48 51
48 50
48 49
47 91
47 70
47 69
47 65
47 63
47 62
47 61
47 60
47 59
47 58
47 57
47 50
47 49
47 48
46 73
46 71
46 70
46 65
46 61
46 60
46 59
46 58
46 57
46 56
46 54
46 51
46 50
46 49
46 48
46 47
45 93
45 92
45 91
45 90
45 89
45 86
45 85
45 82
45 76
45 73
45 72
45 71
45 70
45 69
45 67
45 66
45 65
45 64
45 63
45 62
45 61
45 60
45 59
45 57
45 50
45 47
45 46
44 91
44 89
44 86
44 85
44 73
44 70
44 65
44 61
44 60
44 59
44 58
44 57
44 56
44 54
44 50
44 47
44 46
44 45
43 91
43 90
43 89
43 88
43 86
43 85
43 61
43 59
43 57
43 46
43 45
43 44
42 93
42 92
42 91
42 89
42 87
42 86
42 85
42 84
42 82
42 81
42 76
42 75
42 73
42 72
42 70
42 67
42 65
42 63
42 61
42 60
42 59
42 45
42 44
42 43
41 89
41 85
41 81
41 76
41 75
41 44
41 43
41 42
40 89
40 88
40 87
40 85
40 84
40 81
40 43
40 42
40 41
39 87
39 85
39 84
39 81
39 80
39 78
39 76
39 42
39 41
39 40
38 85
38 81
38 75
38 43
38 42
38 41
38 40
38 39
37 85
37 81
37 78
37 77
37 76
37 75
37 74
37 73
37 72
37 42
37 41
37 39
37 38
36 93
36 86
36 85
36 82
36 81
36 77
36 76
36 75
36 74
36 73
36 72
36 71
36 70
36 45
36 42
36 41
36 38
36 37
35 85
35 81
35 76
35 75
35 74
35 73
35 42
35 41
35 38
35 37
35 36
34 93
34 91
34 86
34 85
34 82
34 81
34 76
34 73
34 72
34 70
34 65
34 59
34 46
34 45
34 44
34 43
34 42
34 41
34 40
34 39
34 38
34 37
34 36
34 35
33 85
33 82
33 76
33 75
33 74
33 73
33 72
33 71
33 70
33 59
33 57
33 54
33 52
33 51
33 50
33 46
33 45
33 44
33 42
33 41
33 38
33 36
33 35
33 34
32 73
32 59
32 57
32 50
32 46
32 44
32 43
32 42
32 41
32 38
32 37
32 35
32 34
32 33
31 91
31 89
31 86
31 73
31 61
31 60
31 59
31 58
31 57
31 56
31 54
31 50
31 48
31 47
31 46
31 45
31 44
31 43
31 42
31 41
31 34
31 33
31 32
30 57
30 56
30 55
30 44
30 43
30 35
30 32
30 31
29 43
29 41
29 38
29 31
29 30
28 55
28 32
28 30
28 29
27 38
27 35
27 32
27 30
27 29
27 28
26 43
26 41
26 38
26 37
26 35
26 34
26 32
26 29
26 28
26 27
25 57
25 43
25 41
25 38
25 35
25 33
25 32
25 31
25 30
25 29
25 28
25 27
25 26
24 91
24 89
24 61
24 59
24 57
24 44
24 43
24 42
24 41
24 38
24 35
24 32
24 31
24 30
24 29
24 26
24 25
23 91
23 86
23 85
23 82
23 81
23 76
23 75
23 73
23 72
23 70
23 59
23 57
23 46
23 44
23 43
23 42
23 41
23 40
23 39
23 38
23 37
23 36
23 35
23 34
23 33
23 32
23 31
23 29
23 26
23 25
23 24
22 91
22 89
22 86
22 85
22 73
22 71
22 70
22 61
22 60
22 59
22 58
22 57
22 54
22 50
22 48
22 47
22 46
22 45
22 44
22 43
22 42
22 41
22 34
22 33
22 32
22 31
22 30
22 24
22 23
21 93
21 91
21 89
21 86
21 85
21 84
21 83
21 82
21 81
21 76
21 75
21 73
21 72
21 71
21 70
21 69
21 67
21 65
21 63
21 61
21 60
21 59
21 57
21 46
21 45
21 44
21 43
21 42
21 41
21 38
21 36
21 35
21 34
21 33
21 31
21 23
21 22
20 85
20 82
20 76
20 75
20 74
20 73
20 72
20 71
20 70
20 65
20 59
20 57
20 54
20 51
20 50
20 49
20 46
20 45
20 44
20 42
20 36
20 35
20 34
20 33
20 32
20 31
20 23
20 22
20 21
19 93
19 91
19 86
19 82
19 72
19 71
19 70
19 69
19 68
19 66
19 65
19 63
19 60
19 50
19 47
19 46
19 45
19 33
19 21
19 20
18 71
18 70
18 69
18 65
18 60
18 58
18 57
18 50
18 49
18 48
18 47
18 46
18 45
18 22
18 20
18 19
17 71
17 69
17 57
17 51
17 50
17 49
17 48
17 46
17 33
17 22
17 20
17 19
17 18
16 73
16 72
16 71
16 70
16 59
16 58
16 57
16 54
16 52
16 51
16 50
16 49
16 48
16 46
16 45
16 44
16 42
16 36
16 35
16 34
16 33
16 32
16 31
16 25
16 22
16 21
16 20
16 19
16 18
16 17
15 73
15 71
15 57
15 54
15 53
15 52
15 51
15 50
15 49
15 48
15 46
15 33
15 20
15 18
15 17
15 16
14 75
14 74
14 73
14 71
14 52
14 51
14 50
14 46
14 36
14 35
14 33
14 32
14 25
14 22
14 20
14 17
14 16
14 15
13 73
13 52
13 50
13 35
13 33
13 32
13 30
13 28
13 25
13 23
13 20
13 16
13 15
13 14
12 73
12 59
12 58
12 57
12 56
12 54
12 53
12 52
12 51
12 50
12 49
12 48
12 46
12 44
12 43
12 34
12 33
12 32
12 31
12 30
12 25
12 22
12 21
12 20
12 17
12 16
12 15
12 14
12 13
11 57
11 55
11 52
11 50
11 41
11 35
11 33
11 32
11 31
11 30
11 29
11 28
11 27
11 26
11 25
11 23
11 22
11 16
11 14
11 13
11 12
10 61
10 59
10 58
10 57
10 56
10 55
10 54
10 53
10 52
10 51
10 50
10 49
10 48
10 46
10 44
10 43
10 33
10 32
10 31
10 30
10 28
10 25
10 22
10 20
10 16
10 15
10 14
10 13
10 12
10 11
9 59
9 57
9 56
9 55
9 44
9 32
9 31
9 30
9 29
9 28
9 25
9 24
9 12
9 11
9 10
8 89
8 61
8 60
8 59
8 58
8 57
8 56
8 54
8 50
8 47
8 46
8 45
8 44
8 43
8 32
8 31
8 30
8 29
8 28
8 25
8 24
8 23
8 22
8 20
8 16
8 12
8 11
8 10
8 9
7 61
7 59
7 58
7 57
7 56
7 55
7 54
7 50
7 48
7 47
7 46
7 44
7 31
7 10
7 9
7 8
6 91
6 90
6 89
6 62
6 61
6 60
6 59
6 58
6 57
6 56
6 47
6 46
6 45
6 44
6 43
6 31
6 24
6 22
6 8
6 7
5 91
5 65
5 63
5 62
5 61
5 60
5 59
5 58
5 56
5 48
5 47
5 46
5 45
5 44
5 19
5 18
5 8
5 7
5 6
4 91
4 90
4 65
4 63
4 62
4 61
4 60
4 59
4 58
4 47
4 6
4 5
3 91
3 86
3 70
3 69
3 65
3 64
3 63
3 62
3 61
3 60
3 59
3 58
3 48
3 47
3 45
3 19
3 18
3 6
3 5
3 4
2 90
2 64
2 63
2 62
2 61
2 60
2 47
2 5
2 4
2 3
1 94
1 92
1 91
1 90
1 65
1 64
1 63
1 62
1 61
1 4
1 3
1 2
0 94
0 92
0 66
0 64
0 63
0 2
0 1
